p edge 56 167
e 17 33
e 7 22
e 7 28
e 22 28
e 4 33
e 5 17
e 32 33
e 32 54
e 33 54
e 7 17
e 17 22
e 17 28
e 31 38
e 13 49
e 37 43
e 37 44
e 37 45
e 43 44
e 43 45
e 44 45
e 39 40
e 12 39
e 42 43
e 11 27
e 11 35
e 11 41
e 11 46
e 11 50
e 27 35
e 27 41
e 27 46
e 27 50
e 35 41
e 35 46
e 35 50
e 41 46
e 41 50
e 46 50
e 2 49
e 2 15
e 23 27
e 6 15
e 6 27
e 6 49
e 15 27
e 15 49
e 27 49
e 22 23
e 22 31
e 23 31
e 30 56
e 9 10
e 9 22
e 9 23
e 10 22
e 10 23
e 33 36
e 33 48
e 36 48
e 35 52
e 35 53
e 41 52
e 41 53
e 50 52
e 50 53
e 52 53
e 34 42
e 34 46
e 42 46
e 17 38
e 31 32
e 31 37
e 32 37
e 26 33
e 26 38
e 33 38
e 32 50
e 32 52
e 37 50
e 37 52
e 33 35
e 33 42
e 33 46
e 35 36
e 35 42
e 35 48
e 36 42
e 36 46
e 42 48
e 46 48
e 1 34
e 14 30
e 14 34
e 30 34
e 8 14
e 8 25
e 8 30
e 14 25
e 25 30
e 31 41
e 31 46
e 31 48
e 31 53
e 38 41
e 38 46
e 38 48
e 38 53
e 41 48
e 46 53
e 48 53
e 26 34
e 26 36
e 26 42
e 34 36
e 44 46
e 44 51
e 45 46
e 45 51
e 46 51
e 28 34
e 28 38
e 34 38
e 25 49
e 14 24
e 14 55
e 24 25
e 24 30
e 24 55
e 25 55
e 30 55
e 3 30
e 18 19
e 18 29
e 18 52
e 19 29
e 19 52
e 29 52
e 16 24
e 16 47
e 24 47
e 24 51
e 47 51
e 47 53
e 51 53
e 32 44
e 32 45
e 44 50
e 44 52
e 45 50
e 45 52
e 44 48
e 44 53
e 45 48
e 45 53
e 48 51
e 31 42
e 41 42
e 21 36
e 21 40
e 21 52
e 36 40
e 36 52
e 40 52
e 50 51
e 20 29
e 20 48
e 29 48
